% seed = 0

mint = 32;
% maxt = 153;

nActs = 62;
dur = [0,2,2,2,2,3,2,3,1,3,3,4,4,2,6,4,3,1,1,2,2,2,4,3,1,3,4,3,3,1,1,2,2,2,4,5,3,3,3,3,1,4,1,1,3,1,1,4,1,2,5,1,2,3,2,2,3,1,2,3,6,0];

nSkills = 15;
sreq = [| 0,0,0,0,0,0,0,0,0,0,0,0,0,0,0,
	| 1,0,1,0,0,1,0,1,0,0,1,0,0,1,0,
	| 0,0,0,0,0,1,0,0,0,0,1,1,1,0,0,
	| 0,0,0,1,0,1,0,0,0,0,1,0,0,2,0,
	| 1,0,0,1,0,0,1,0,0,0,0,1,0,2,0,
	| 0,0,0,0,0,1,0,0,0,0,0,0,0,1,0,
	| 0,0,0,0,0,0,0,0,0,0,0,0,0,1,0,
	| 1,0,0,0,0,1,0,1,1,1,0,0,0,0,0,
	| 0,0,0,0,0,2,0,0,0,0,2,0,1,1,0,
	| 0,0,1,0,1,3,0,0,0,0,0,0,0,1,0,
	| 0,1,1,0,0,0,0,1,0,0,0,1,0,0,0,
	| 0,0,0,0,1,0,0,0,0,0,0,0,0,0,0,
	| 0,0,0,0,1,1,0,0,0,0,0,0,1,1,0,
	| 0,0,1,0,0,0,0,0,0,0,0,0,0,3,0,
	| 0,0,0,0,0,0,0,0,0,0,0,0,0,1,0,
	| 0,0,1,0,0,0,0,0,0,0,0,0,0,0,0,
	| 0,1,0,0,0,1,0,0,0,0,0,0,0,3,0,
	| 0,0,0,0,0,1,0,0,0,0,0,1,0,0,0,
	| 0,0,0,0,1,0,0,0,0,0,0,0,0,1,0,
	| 0,0,0,1,0,1,0,0,0,0,0,1,0,1,0,
	| 0,0,1,0,1,1,0,0,0,0,0,0,0,0,0,
	| 0,0,0,0,0,1,0,0,1,0,0,0,1,0,0,
	| 0,0,0,0,0,1,0,0,0,0,0,0,2,0,0,
	| 0,0,0,0,0,0,0,0,0,0,0,0,0,1,0,
	| 0,0,0,0,0,1,0,0,1,1,0,1,0,2,0,
	| 0,0,0,0,1,1,0,0,0,0,1,0,0,1,0,
	| 0,0,0,0,0,0,0,0,0,0,0,0,0,1,0,
	| 0,1,0,0,0,3,0,0,0,1,0,0,0,1,0,
	| 0,0,0,1,0,1,0,0,0,0,1,1,1,0,0,
	| 0,0,0,0,0,1,0,0,0,0,0,1,0,0,0,
	| 0,0,0,0,1,0,0,0,0,0,1,1,0,0,0,
	| 0,0,0,0,0,1,0,0,0,0,0,1,0,1,0,
	| 0,0,0,0,0,2,0,0,1,0,1,0,0,1,0,
	| 0,0,1,1,0,0,0,0,0,0,0,0,1,0,0,
	| 0,1,0,0,0,0,1,0,0,0,0,1,1,1,0,
	| 0,0,0,0,0,1,0,0,0,0,0,0,1,1,1,
	| 1,0,0,0,0,0,1,0,0,0,0,0,1,1,0,
	| 0,0,0,0,0,2,1,0,0,0,0,0,0,0,0,
	| 0,0,0,0,0,0,0,0,0,1,1,0,0,1,0,
	| 1,0,0,0,1,1,0,0,0,0,0,0,0,1,0,
	| 0,0,0,0,1,0,1,0,0,0,1,1,0,1,0,
	| 0,1,0,0,1,0,0,0,1,0,0,0,1,0,0,
	| 1,0,0,0,0,0,0,0,0,0,0,0,0,0,0,
	| 0,0,1,0,0,2,0,0,0,1,0,0,0,2,0,
	| 1,0,0,0,1,1,0,0,0,0,0,1,1,0,0,
	| 0,0,0,0,0,3,0,0,0,0,0,0,0,0,0,
	| 1,0,1,1,0,1,0,0,0,0,0,0,0,1,0,
	| 0,0,0,0,0,0,0,0,0,1,0,0,0,0,0,
	| 0,0,1,0,0,1,0,0,0,0,0,1,0,1,0,
	| 1,0,0,0,0,0,0,0,0,0,0,1,1,1,0,
	| 0,0,0,1,0,1,1,0,0,0,1,0,2,0,0,
	| 0,0,1,0,0,0,0,0,0,0,0,0,0,0,0,
	| 0,1,0,0,0,0,0,0,0,0,0,0,0,0,0,
	| 0,0,1,0,0,0,0,0,0,0,0,0,0,1,0,
	| 0,0,0,0,0,3,0,0,0,1,0,0,0,1,0,
	| 0,0,0,0,1,2,0,0,0,0,1,1,1,0,0,
	| 0,0,0,0,0,0,0,0,0,0,0,1,0,1,0,
	| 0,0,0,0,0,0,0,0,0,0,1,0,0,1,0,
	| 0,0,1,0,0,1,0,0,1,0,1,0,1,1,0,
	| 0,0,0,1,1,2,0,0,0,0,0,0,1,1,0,
	| 0,0,1,0,0,0,0,0,0,0,0,0,0,0,0,
	| 0,0,0,0,0,0,0,0,0,0,0,0,0,0,0, |];

% SumOfsreq = 216;

nResources = 18;
mastery = [| false,false,false,false,false,false,false,false,false,false,false,false,true,true,true,
	| false,false,false,false,false,false,true,true,true,false,false,false,false,false,false,
	| false,false,false,false,true,true,false,false,false,false,false,false,false,false,false,
	| false,false,false,false,false,true,false,false,false,false,false,false,false,false,false,
	| false,false,false,false,false,false,false,false,false,false,true,true,false,false,false,
	| false,false,false,false,false,false,false,false,false,false,false,false,true,true,true,
	| false,false,true,false,false,true,true,true,true,false,false,true,false,false,false,
	| false,false,false,false,false,false,false,false,false,false,false,false,true,true,true,
	| false,false,false,false,false,false,false,false,false,false,false,false,true,true,true,
	| false,false,false,true,true,true,false,false,false,false,false,false,false,false,false,
	| false,false,false,false,false,false,false,false,false,true,true,true,true,true,true,
	| false,false,false,false,false,false,false,false,false,false,false,false,false,true,true,
	| false,false,true,false,false,false,false,false,false,false,false,false,false,false,true,
	| false,false,false,true,true,true,false,false,false,false,false,false,false,false,false,
	| true,true,true,false,false,false,false,false,false,false,false,false,false,false,false,
	| false,false,false,false,false,false,false,false,false,true,true,true,false,false,false,
	| false,false,false,false,false,true,false,false,false,false,false,false,false,false,false,
	| false,false,false,false,false,true,false,false,false,false,false,false,false,false,false, |];

nPrecs = 93;
pred = [1,1,1,2,2,2,3,3,3,4,4,4,5,5,6,6,7,7,7,8,8,8,9,10,11,11,11,12,12,12,13,13,13,14,15,15,15,16,16,17,18,19,20,20,21,21,21,22,23,24,25,26,27,28,28,29,30,31,31,32,32,33,34,35,35,36,37,38,39,39,40,41,41,42,43,44,45,46,47,48,49,50,51,52,53,54,55,56,57,58,59,60,61];
succ = [2,3,4,27,7,16,13,6,15,10,5,45,59,29,14,24,34,11,8,9,33,22,19,55,36,12,38,41,18,48,34,21,23,31,52,20,37,17,61,31,53,59,42,28,40,55,32,58,33,25,26,47,31,54,39,30,49,50,44,57,35,57,49,51,60,40,58,53,44,46,52,43,46,56,54,57,48,59,48,51,50,54,52,53,58,55,56,60,60,61,62,62,62];

nUnrels = 1320;
unpred = [2,2,2,2,2,2,2,2,2,2,2,2,2,2,2,2,2,2,2,2,2,2,2,2,3,3,3,3,3,3,3,3,3,3,3,3,3,3,3,3,3,3,3,3,3,4,4,4,4,4,4,4,4,4,4,4,4,4,4,4,4,4,4,4,4,4,4,4,4,4,4,4,4,4,4,4,4,4,4,4,4,4,4,4,5,5,5,5,5,5,5,5,5,5,5,5,5,5,5,5,5,5,5,5,5,5,5,5,5,5,5,5,5,5,5,5,5,5,5,5,5,5,5,5,5,5,5,5,5,5,5,6,6,6,6,6,6,6,6,6,6,6,6,6,6,6,6,6,6,6,6,6,6,6,6,6,6,6,6,6,6,6,6,6,6,6,6,7,7,7,7,7,7,7,7,7,7,7,7,7,7,7,7,7,7,7,7,7,7,7,7,7,8,8,8,8,8,8,8,8,8,8,8,8,8,8,8,8,8,8,8,8,8,8,8,8,8,8,8,8,8,8,8,8,8,8,8,8,8,8,8,8,8,8,8,8,9,9,9,9,9,9,9,9,9,9,9,9,9,9,9,9,9,9,9,9,9,9,9,9,9,9,9,9,9,9,9,9,9,9,9,9,9,9,9,9,9,9,9,9,9,9,9,9,9,9,10,10,10,10,10,10,10,10,10,10,10,10,10,10,10,10,10,10,10,10,10,10,10,10,10,10,10,10,10,10,10,10,10,10,10,10,10,10,10,10,10,10,10,10,10,10,10,10,11,11,11,11,11,11,11,11,11,11,11,11,11,11,11,11,11,11,11,11,11,11,11,11,11,11,11,11,11,11,11,12,12,12,12,12,12,12,12,12,12,12,12,12,12,12,12,12,12,12,12,12,12,12,12,12,12,12,12,12,12,12,12,12,12,13,13,13,13,13,13,13,13,13,13,13,13,13,13,13,13,13,13,13,13,13,13,13,13,13,13,13,13,13,14,14,14,14,14,14,14,14,14,14,14,14,14,14,14,14,14,14,14,14,14,14,14,14,14,14,14,14,14,14,14,14,14,14,14,14,14,14,14,15,15,15,15,15,15,15,15,15,15,15,15,15,15,15,15,15,15,15,15,15,15,15,15,15,15,15,15,15,16,16,16,16,16,16,16,16,16,16,16,16,16,16,16,16,16,16,16,16,16,16,16,16,16,16,16,16,16,16,16,16,16,16,16,17,17,17,17,17,17,17,17,17,17,17,17,17,17,17,17,17,17,17,17,17,17,17,17,17,17,17,17,17,17,17,17,17,17,17,17,18,18,18,18,18,18,18,18,18,18,18,18,18,18,18,18,18,18,18,18,18,18,18,18,18,18,18,18,18,18,18,18,18,18,18,18,18,18,18,18,19,19,19,19,19,19,19,19,19,19,19,19,19,19,19,19,19,19,19,19,19,19,19,19,19,19,19,19,19,19,19,19,19,19,19,19,19,19,19,19,19,20,20,20,20,20,20,20,20,20,20,20,20,20,20,20,20,20,20,20,20,20,20,20,20,20,20,20,20,20,20,21,21,21,21,21,21,21,21,21,21,21,21,21,21,21,21,21,21,21,21,21,21,21,21,21,21,21,21,22,22,22,22,22,22,22,22,22,22,22,22,22,22,22,22,22,22,22,22,22,22,22,22,22,22,22,22,22,22,22,22,22,22,22,22,22,23,23,23,23,23,23,23,23,23,23,23,23,23,23,23,23,23,23,23,23,23,23,23,23,23,23,23,23,23,23,23,23,23,23,23,24,24,24,24,24,24,24,24,24,24,24,24,24,24,24,24,24,24,24,24,24,24,24,24,24,24,24,24,25,25,25,25,25,25,25,25,25,25,25,25,25,25,25,25,25,25,25,25,25,25,25,25,25,25,25,25,26,26,26,26,26,26,26,26,26,26,26,26,26,26,26,26,26,26,26,26,26,26,26,26,26,26,26,26,27,27,27,27,27,27,27,27,27,27,27,27,27,27,27,27,27,27,27,27,27,27,27,27,27,27,28,28,28,28,28,28,28,28,28,28,28,28,28,28,28,28,28,28,28,28,28,28,28,28,29,29,29,29,29,29,29,29,29,29,29,29,29,29,29,29,29,29,29,29,29,29,29,29,29,30,30,30,30,30,30,30,30,30,30,30,30,30,30,30,30,30,30,30,30,30,30,30,30,30,31,31,31,31,31,31,31,31,31,31,31,31,31,31,31,31,31,31,31,31,31,31,31,32,32,32,32,32,32,32,32,32,32,32,32,32,32,32,32,32,32,32,32,32,33,33,33,33,33,33,33,33,33,33,33,33,33,33,33,33,33,33,33,33,33,33,33,33,33,33,34,34,34,34,34,34,34,34,34,34,34,34,34,34,34,34,34,34,34,34,34,35,35,35,35,35,35,35,35,35,35,35,35,35,35,35,35,35,35,35,35,36,36,36,36,36,36,36,36,36,36,36,36,36,36,36,36,36,36,36,36,37,37,37,37,37,37,37,37,37,37,37,37,37,37,37,37,37,37,37,37,37,37,38,38,38,38,38,38,38,38,38,38,38,38,38,38,38,38,38,38,38,38,39,39,39,39,39,39,39,39,39,39,39,39,39,39,39,39,39,40,40,40,40,40,40,40,40,40,40,40,40,40,40,40,40,40,41,41,41,41,41,41,41,41,41,41,41,41,41,42,42,42,42,42,42,42,42,42,42,42,42,42,42,42,42,42,43,43,43,43,43,43,43,43,43,43,43,43,43,43,44,44,44,44,44,44,44,44,44,44,44,44,44,44,44,45,45,45,45,45,45,45,45,45,45,46,46,46,46,46,46,46,46,46,46,46,46,46,46,47,47,47,47,47,47,47,47,48,48,48,48,48,48,48,48,49,49,49,49,49,49,49,50,50,50,50,50,50,50,51,51,51,51,51,51,52,52,52,52,52,52,53,53,53,53,53,53,54,54,54,54,55,55,55,55,56,56,56,56,57,57,57,58,58,59,59,60];
unsucc = [3,4,5,6,10,13,14,15,20,21,23,24,25,26,28,29,30,32,35,37,39,42,45,47,4,5,7,8,9,10,11,12,16,17,18,19,22,27,29,30,36,38,41,43,45,6,7,8,9,11,12,13,14,15,16,17,18,19,20,21,22,23,24,25,26,27,28,31,32,33,34,35,36,37,38,39,40,41,42,43,44,46,47,57,6,7,8,9,10,11,12,13,14,15,16,17,18,19,20,21,22,23,24,25,26,27,28,31,32,33,34,35,36,37,38,39,40,41,42,43,44,45,46,47,48,51,52,53,57,58,61,7,8,9,10,11,12,13,15,16,17,18,19,20,21,22,23,27,28,29,30,32,33,34,35,36,37,38,39,40,41,42,43,45,46,49,59,10,13,14,15,16,17,20,21,23,24,25,26,27,28,29,30,31,32,35,37,39,42,44,45,47,10,11,12,13,14,15,16,17,18,20,21,23,24,25,26,27,28,29,30,31,32,34,35,36,37,38,39,40,41,42,43,44,45,46,47,48,49,50,51,52,53,54,55,56,10,11,12,13,14,15,16,17,18,20,21,22,23,24,25,26,27,28,29,30,31,32,33,34,35,36,37,38,39,40,41,42,43,44,45,46,47,48,49,50,51,52,53,54,55,56,57,58,60,61,11,12,13,14,15,16,17,18,19,20,21,22,23,24,25,26,27,28,29,30,31,32,33,34,35,36,37,38,39,40,41,42,43,44,45,46,47,48,49,50,51,52,53,54,57,58,59,61,13,14,15,16,17,19,20,21,22,23,24,25,26,27,28,29,30,31,32,33,34,35,37,39,42,44,45,47,49,50,57,13,14,15,16,17,19,20,21,22,23,24,25,26,27,28,29,30,31,32,33,34,35,36,37,38,39,40,42,44,45,47,49,50,57,14,15,16,17,18,19,20,22,24,25,26,27,28,29,30,31,36,37,38,39,41,42,43,44,45,46,47,48,59,15,16,17,18,19,20,21,22,23,24,25,26,27,28,29,30,32,33,34,35,36,37,38,39,40,41,42,43,45,46,47,48,49,51,52,53,58,59,61,16,17,18,19,21,22,23,24,25,26,27,29,30,31,32,33,34,35,36,38,40,41,43,45,47,48,49,50,51,18,19,20,21,22,23,24,25,26,27,28,29,30,32,33,34,35,36,37,38,39,40,41,42,43,45,46,47,48,49,51,52,53,58,59,18,19,20,21,22,23,24,25,26,27,28,29,30,32,33,34,35,36,37,38,39,40,41,42,43,45,46,47,48,49,51,52,53,58,59,61,19,20,21,22,23,24,25,26,27,28,29,30,31,32,33,34,35,36,37,38,39,40,41,42,43,44,45,46,47,48,49,50,51,52,54,55,56,57,59,60,20,21,22,23,24,25,26,27,28,29,30,31,32,33,34,35,36,37,38,39,40,41,42,43,44,45,46,47,48,49,50,51,52,53,54,55,56,57,58,60,61,21,22,23,24,25,26,27,29,30,31,32,33,34,35,36,37,38,40,41,43,45,47,48,49,50,51,52,53,58,61,22,23,24,25,26,27,28,29,30,31,33,34,36,37,38,39,41,42,43,44,45,46,47,48,49,50,54,59,23,24,25,26,27,28,29,30,31,32,33,34,35,36,37,38,39,40,41,42,43,44,45,46,47,48,49,50,51,52,53,54,55,56,57,59,60,24,25,26,27,28,29,30,31,32,34,35,36,37,38,39,40,41,42,43,44,45,46,47,48,49,50,51,52,53,54,55,56,58,59,61,27,28,29,30,31,32,33,34,35,36,37,38,39,40,41,42,43,44,45,46,49,50,54,55,56,57,59,60,27,28,29,30,31,32,33,34,35,36,37,38,39,40,41,42,43,44,45,46,49,50,54,55,56,57,59,60,27,28,29,30,31,32,33,34,35,36,37,38,39,40,41,42,43,44,45,46,49,50,54,55,56,57,59,60,28,29,30,32,33,34,35,36,37,38,39,40,41,42,43,45,46,47,48,49,51,52,53,58,59,61,29,30,31,32,33,34,35,36,37,38,40,41,42,43,45,47,48,49,50,51,52,53,58,61,31,32,33,34,35,36,37,38,39,40,41,42,43,44,45,46,47,48,51,52,53,57,58,59,61,31,32,33,34,35,36,37,38,39,40,41,42,43,44,45,46,47,48,51,52,53,57,58,59,61,32,33,34,35,36,37,38,39,40,41,42,43,45,46,47,48,49,51,52,53,58,59,61,33,34,36,37,38,39,40,41,42,43,44,45,46,47,48,49,50,54,55,56,59,34,35,36,37,38,39,40,41,42,43,44,45,46,47,48,49,50,51,52,53,54,55,56,58,59,61,35,36,37,38,39,40,41,42,43,44,45,46,47,48,51,52,53,57,58,59,61,36,37,38,39,40,41,42,43,44,45,46,47,48,49,50,54,55,56,57,59,37,38,39,41,42,43,44,45,46,47,48,49,50,51,54,55,56,57,59,60,38,39,40,41,42,43,44,45,46,47,48,49,50,51,52,53,54,55,56,57,59,60,39,40,41,42,43,44,45,46,47,48,49,50,51,52,54,55,56,57,59,60,40,41,42,43,45,47,48,49,50,51,52,53,54,55,56,58,61,41,42,43,44,45,46,47,48,49,50,51,54,55,56,57,59,60,42,44,45,47,48,49,50,51,52,53,57,58,61,43,44,45,46,47,48,49,50,51,52,53,54,55,57,58,59,61,44,45,46,47,48,49,50,51,52,53,57,58,59,61,45,46,47,48,49,50,51,52,53,54,55,56,58,59,61,46,47,49,50,54,55,56,57,59,60,47,48,49,50,51,52,53,54,55,56,57,58,60,61,49,50,54,55,56,57,59,60,49,50,54,55,56,57,59,60,51,52,53,57,58,59,61,51,52,53,57,58,59,61,54,55,56,57,59,60,54,55,56,57,59,60,54,55,56,57,59,60,57,58,59,61,57,58,59,61,57,58,59,61,58,59,61,59,60,60,61,61];

USEFUL_RES = [{},
	{1,2,3,4,5,6,7,8,9,10,11,12,13,14,15,16,17,18},
	{1,3,4,5,6,7,8,9,10,11,14,16,17,18},
	{1,3,4,5,6,7,8,9,10,11,12,14,16,17,18},
	{1,2,5,6,7,8,9,10,11,12,14,15,16},
	{1,3,4,6,7,8,9,10,11,12,14,17,18},
	{1,6,8,9,11,12},
	{2,3,4,7,10,11,14,15,16,17,18},
	{1,3,4,5,6,7,8,9,10,11,12,14,16,17,18},
	{1,3,4,6,7,8,9,10,11,12,13,14,15,17,18},
	{2,5,7,11,13,15,16},
	{3,10,14},
	{1,3,4,6,7,8,9,10,11,12,14,17,18},
	{1,6,7,8,9,11,12,13,15},
	{1,6,8,9,11,12},
	{7,13,15},
	{1,3,4,6,7,8,9,10,11,12,14,15,17,18},
	{3,4,5,7,10,11,14,16,17,18},
	{1,3,6,8,9,10,11,12,14},
	{1,3,4,5,6,7,8,9,10,11,12,14,16,17,18},
	{3,4,7,10,13,14,15,17,18},
	{1,2,3,4,6,7,8,9,10,11,14,17,18},
	{1,3,4,6,7,8,9,10,11,14,17,18},
	{1,6,8,9,11,12},
	{1,2,3,4,5,6,7,8,9,10,11,12,14,16,17,18},
	{1,3,4,5,6,7,8,9,10,11,12,14,16,17,18},
	{1,6,8,9,11,12},
	{1,3,4,6,7,8,9,10,11,12,14,15,16,17,18},
	{1,3,4,5,6,7,8,9,10,11,14,16,17,18},
	{3,4,5,7,10,11,14,16,17,18},
	{3,5,7,10,11,14,16},
	{1,3,4,5,6,7,8,9,10,11,12,14,16,17,18},
	{1,2,3,4,5,6,7,8,9,10,11,12,14,16,17,18},
	{1,6,7,8,9,10,11,13,14,15},
	{1,2,5,6,7,8,9,11,12,15,16},
	{1,3,4,6,7,8,9,10,11,12,13,14,17,18},
	{1,2,6,7,8,9,11,12,15},
	{2,3,4,7,10,14,17,18},
	{1,5,6,8,9,11,12,16},
	{1,3,4,6,7,8,9,10,11,12,14,15,17,18},
	{1,2,3,5,6,7,8,9,10,11,12,14,16},
	{1,2,3,6,7,8,9,10,11,14,15},
	{15},
	{1,3,4,6,7,8,9,10,11,12,13,14,15,16,17,18},
	{1,3,4,5,6,7,8,9,10,11,14,15,16,17,18},
	{3,4,7,10,14,17,18},
	{1,3,4,6,7,8,9,10,11,12,13,14,15,17,18},
	{11,16},
	{1,3,4,5,6,7,8,9,10,11,12,13,14,15,16,17,18},
	{1,5,6,7,8,9,11,12,15,16},
	{1,2,3,4,5,6,7,8,9,10,11,14,16,17,18},
	{7,13,15},
	{15},
	{1,6,7,8,9,11,12,13,15},
	{1,3,4,6,7,8,9,10,11,12,14,16,17,18},
	{1,3,4,5,6,7,8,9,10,11,14,16,17,18},
	{1,5,6,7,8,9,11,12,16},
	{1,5,6,8,9,11,12,16},
	{1,2,3,4,5,6,7,8,9,10,11,12,13,14,15,16,17,18},
	{1,3,4,6,7,8,9,10,11,12,14,17,18},
	{7,13,15},
	{}];

POTENTIAL_ACT = [{2,3,4,5,6,7,9,10,13,14,15,17,19,20,22,23,24,25,26,27,28,29,32,33,34,35,36,37,39,40,41,42,44,45,47,49,50,51,54,55,56,57,58,59,60},
	{2,5,8,11,22,25,33,35,37,38,41,42,51,59},
	{2,3,4,6,8,9,10,12,13,17,18,19,20,21,22,23,25,26,28,29,30,31,32,33,36,38,40,41,42,44,45,46,47,49,51,55,56,59,60},
	{2,3,4,6,8,9,10,13,17,18,20,21,22,23,25,26,28,29,30,32,33,36,38,40,44,45,46,47,49,51,55,56,59,60},
	{2,3,4,5,9,11,18,20,25,26,29,30,31,32,33,35,39,41,45,49,50,51,56,57,58,59},
	{2,3,4,5,6,7,9,10,13,14,15,17,19,20,22,23,24,25,26,27,28,29,32,33,34,35,36,37,39,40,41,42,44,45,47,49,50,51,54,55,56,57,58,59,60},
	{2,3,4,5,6,8,9,10,11,13,14,16,17,18,20,21,22,23,25,26,28,29,30,31,32,33,34,35,36,37,38,40,41,42,44,45,46,47,49,50,51,52,54,55,56,57,59,60,61},
	{2,3,4,5,6,7,9,10,13,14,15,17,19,20,22,23,24,25,26,27,28,29,32,33,34,35,36,37,39,40,41,42,44,45,47,49,50,51,54,55,56,57,58,59,60},
	{2,3,4,5,6,7,9,10,13,14,15,17,19,20,22,23,24,25,26,27,28,29,32,33,34,35,36,37,39,40,41,42,44,45,47,49,50,51,54,55,56,57,58,59,60},
	{2,3,4,5,6,8,9,10,12,13,17,18,19,20,21,22,23,25,26,28,29,30,31,32,33,34,36,38,40,41,42,44,45,46,47,49,51,55,56,59,60},
	{2,3,4,5,6,7,8,9,10,11,13,14,15,17,18,19,20,22,23,24,25,26,27,28,29,30,31,32,33,34,35,36,37,39,40,41,42,44,45,47,48,49,50,51,54,55,56,57,58,59,60},
	{2,4,5,6,7,9,10,13,14,15,17,19,20,24,25,26,27,28,32,33,35,36,37,39,40,41,44,47,49,50,54,55,57,58,59,60},
	{2,10,11,14,16,21,34,36,44,47,49,52,54,59,61},
	{2,3,4,5,6,8,9,10,12,13,17,18,19,20,21,22,23,25,26,28,29,30,31,32,33,34,36,38,40,41,42,44,45,46,47,49,51,55,56,59,60},
	{2,5,8,10,11,14,16,17,21,28,34,35,37,40,42,43,44,45,47,49,50,52,53,54,59,61},
	{2,3,4,5,8,9,11,18,20,25,26,28,29,30,31,32,33,35,39,41,44,45,48,49,50,51,55,56,57,58,59},
	{2,3,4,6,8,9,10,13,17,18,20,21,22,23,25,26,28,29,30,32,33,36,38,40,44,45,46,47,49,51,55,56,59,60},
	{2,3,4,6,8,9,10,13,17,18,20,21,22,23,25,26,28,29,30,32,33,36,38,40,44,45,46,47,49,51,55,56,59,60}];
